size = 5;
tiles = 15;
expressions = [
    "( ([2 3 4 5 6 7 8 9 10 11 12 13 14 15 16]* 1{1} [2 3 4 5 6 7 8 9 10 11 12 13 14 15 16]{4} [2 3 4 5 6 7 8 9 10 11 12 13 14 15 16] 1{1}  [2 3 4 5 6 7 8 9 10 11 12 13 14 15 16]*) | ([2 3 4 5 6 7 8 9 10 11 12 13 14 15 16]* 1{2}  [2 3 4 5 6 7 8 9 10 11 12 13 14 15 16]*) | ([2 3 4 5 6 7 8 9 10 11 12 13 14 15 16]* 1{1} [2 3 4 5 6 7 8 9 10 11 12 13 14 15 16] [2 3 4 5 6 7 8 9 10 11 12 13 14 15 16]{4} 1{1}  [2 3 4 5 6 7 8 9 10 11 12 13 14 15 16]*) | ([2 3 4 5 6 7 8 9 10 11 12 13 14 15 16]* 1{2}  [2 3 4 5 6 7 8 9 10 11 12 13 14 15 16]*) | ([2 3 4 5 6 7 8 9 10 11 12 13 14 15 16]* 1{1} [2 3 4 5 6 7 8 9 10 11 12 13 14 15 16] [2 3 4 5 6 7 8 9 10 11 12 13 14 15 16]{4} 1{1}  [2 3 4 5 6 7 8 9 10 11 12 13 14 15 16]*) | ([2 3 4 5 6 7 8 9 10 11 12 13 14 15 16]* 1{2}  [2 3 4 5 6 7 8 9 10 11 12 13 14 15 16]*) | ([2 3 4 5 6 7 8 9 10 11 12 13 14 15 16]* 1{1} [2 3 4 5 6 7 8 9 10 11 12 13 14 15 16]{4} [2 3 4 5 6 7 8 9 10 11 12 13 14 15 16] 1{1}  [2 3 4 5 6 7 8 9 10 11 12 13 14 15 16]*) | ([2 3 4 5 6 7 8 9 10 11 12 13 14 15 16]* 1{2}  [2 3 4 5 6 7 8 9 10 11 12 13 14 15 16]*) )",
    "( ([1 3 4 5 6 7 8 9 10 11 12 13 14 15 16]* 2{1}  [1 3 4 5 6 7 8 9 10 11 12 13 14 15 16]*) | ([1 3 4 5 6 7 8 9 10 11 12 13 14 15 16]* 2{1}  [1 3 4 5 6 7 8 9 10 11 12 13 14 15 16]*) | ([1 3 4 5 6 7 8 9 10 11 12 13 14 15 16]* 2{1}  [1 3 4 5 6 7 8 9 10 11 12 13 14 15 16]*) | ([1 3 4 5 6 7 8 9 10 11 12 13 14 15 16]* 2{1}  [1 3 4 5 6 7 8 9 10 11 12 13 14 15 16]*) | ([1 3 4 5 6 7 8 9 10 11 12 13 14 15 16]* 2{1}  [1 3 4 5 6 7 8 9 10 11 12 13 14 15 16]*) | ([1 3 4 5 6 7 8 9 10 11 12 13 14 15 16]* 2{1}  [1 3 4 5 6 7 8 9 10 11 12 13 14 15 16]*) | ([1 3 4 5 6 7 8 9 10 11 12 13 14 15 16]* 2{1}  [1 3 4 5 6 7 8 9 10 11 12 13 14 15 16]*) | ([1 3 4 5 6 7 8 9 10 11 12 13 14 15 16]* 2{1}  [1 3 4 5 6 7 8 9 10 11 12 13 14 15 16]*) )",
    "( ([1 2 4 5 6 7 8 9 10 11 12 13 14 15 16]* 3{1}  [1 2 4 5 6 7 8 9 10 11 12 13 14 15 16]*) | ([1 2 4 5 6 7 8 9 10 11 12 13 14 15 16]* 3{1}  [1 2 4 5 6 7 8 9 10 11 12 13 14 15 16]*) | ([1 2 4 5 6 7 8 9 10 11 12 13 14 15 16]* 3{1}  [1 2 4 5 6 7 8 9 10 11 12 13 14 15 16]*) | ([1 2 4 5 6 7 8 9 10 11 12 13 14 15 16]* 3{1}  [1 2 4 5 6 7 8 9 10 11 12 13 14 15 16]*) | ([1 2 4 5 6 7 8 9 10 11 12 13 14 15 16]* 3{1}  [1 2 4 5 6 7 8 9 10 11 12 13 14 15 16]*) | ([1 2 4 5 6 7 8 9 10 11 12 13 14 15 16]* 3{1}  [1 2 4 5 6 7 8 9 10 11 12 13 14 15 16]*) | ([1 2 4 5 6 7 8 9 10 11 12 13 14 15 16]* 3{1}  [1 2 4 5 6 7 8 9 10 11 12 13 14 15 16]*) | ([1 2 4 5 6 7 8 9 10 11 12 13 14 15 16]* 3{1}  [1 2 4 5 6 7 8 9 10 11 12 13 14 15 16]*) )",
    "( ([1 2 3 5 6 7 8 9 10 11 12 13 14 15 16]* 4{1} [1 2 3 5 6 7 8 9 10 11 12 13 14 15 16]{3} [1 2 3 5 6 7 8 9 10 11 12 13 14 15 16] [1 2 3 5 6 7 8 9 10 11 12 13 14 15 16]{1} 4{1}  [1 2 3 5 6 7 8 9 10 11 12 13 14 15 16]*) | ([1 2 3 5 6 7 8 9 10 11 12 13 14 15 16]* 4{2}  [1 2 3 5 6 7 8 9 10 11 12 13 14 15 16]*) | ([1 2 3 5 6 7 8 9 10 11 12 13 14 15 16]* 4{1} [1 2 3 5 6 7 8 9 10 11 12 13 14 15 16]{1} [1 2 3 5 6 7 8 9 10 11 12 13 14 15 16] [1 2 3 5 6 7 8 9 10 11 12 13 14 15 16]{3} 4{1}  [1 2 3 5 6 7 8 9 10 11 12 13 14 15 16]*) | ([1 2 3 5 6 7 8 9 10 11 12 13 14 15 16]* 4{2}  [1 2 3 5 6 7 8 9 10 11 12 13 14 15 16]*) | ([1 2 3 5 6 7 8 9 10 11 12 13 14 15 16]* 4{1} [1 2 3 5 6 7 8 9 10 11 12 13 14 15 16]{1} [1 2 3 5 6 7 8 9 10 11 12 13 14 15 16] [1 2 3 5 6 7 8 9 10 11 12 13 14 15 16]{3} 4{1}  [1 2 3 5 6 7 8 9 10 11 12 13 14 15 16]*) | ([1 2 3 5 6 7 8 9 10 11 12 13 14 15 16]* 4{2}  [1 2 3 5 6 7 8 9 10 11 12 13 14 15 16]*) | ([1 2 3 5 6 7 8 9 10 11 12 13 14 15 16]* 4{1} [1 2 3 5 6 7 8 9 10 11 12 13 14 15 16]{3} [1 2 3 5 6 7 8 9 10 11 12 13 14 15 16] [1 2 3 5 6 7 8 9 10 11 12 13 14 15 16]{1} 4{1}  [1 2 3 5 6 7 8 9 10 11 12 13 14 15 16]*) | ([1 2 3 5 6 7 8 9 10 11 12 13 14 15 16]* 4{2}  [1 2 3 5 6 7 8 9 10 11 12 13 14 15 16]*) )",
    "( ([1 2 3 4 6 7 8 9 10 11 12 13 14 15 16]* 5{1} [1 2 3 4 6 7 8 9 10 11 12 13 14 15 16]{3} [1 2 3 4 6 7 8 9 10 11 12 13 14 15 16] [1 2 3 4 6 7 8 9 10 11 12 13 14 15 16]{1} 5{2}  [1 2 3 4 6 7 8 9 10 11 12 13 14 15 16]*) | ([1 2 3 4 6 7 8 9 10 11 12 13 14 15 16]* 5{2} [1 2 3 4 6 7 8 9 10 11 12 13 14 15 16]{3} [1 2 3 4 6 7 8 9 10 11 12 13 14 15 16] 5{1}  [1 2 3 4 6 7 8 9 10 11 12 13 14 15 16]*) | ([1 2 3 4 6 7 8 9 10 11 12 13 14 15 16]* 5{2} [1 2 3 4 6 7 8 9 10 11 12 13 14 15 16]{1} [1 2 3 4 6 7 8 9 10 11 12 13 14 15 16] [1 2 3 4 6 7 8 9 10 11 12 13 14 15 16]{3} 5{1}  [1 2 3 4 6 7 8 9 10 11 12 13 14 15 16]*) | ([1 2 3 4 6 7 8 9 10 11 12 13 14 15 16]* 5{1} [1 2 3 4 6 7 8 9 10 11 12 13 14 15 16] [1 2 3 4 6 7 8 9 10 11 12 13 14 15 16]{3} 5{2}  [1 2 3 4 6 7 8 9 10 11 12 13 14 15 16]*) | ([1 2 3 4 6 7 8 9 10 11 12 13 14 15 16]* 5{1} [1 2 3 4 6 7 8 9 10 11 12 13 14 15 16]{1} [1 2 3 4 6 7 8 9 10 11 12 13 14 15 16] [1 2 3 4 6 7 8 9 10 11 12 13 14 15 16]{2} 5{2}  [1 2 3 4 6 7 8 9 10 11 12 13 14 15 16]*) | ([1 2 3 4 6 7 8 9 10 11 12 13 14 15 16]* 5{2} [1 2 3 4 6 7 8 9 10 11 12 13 14 15 16] [1 2 3 4 6 7 8 9 10 11 12 13 14 15 16]{4} 5{1}  [1 2 3 4 6 7 8 9 10 11 12 13 14 15 16]*) | ([1 2 3 4 6 7 8 9 10 11 12 13 14 15 16]* 5{2} [1 2 3 4 6 7 8 9 10 11 12 13 14 15 16]{2} [1 2 3 4 6 7 8 9 10 11 12 13 14 15 16] [1 2 3 4 6 7 8 9 10 11 12 13 14 15 16]{1} 5{1}  [1 2 3 4 6 7 8 9 10 11 12 13 14 15 16]*) | ([1 2 3 4 6 7 8 9 10 11 12 13 14 15 16]* 5{1} [1 2 3 4 6 7 8 9 10 11 12 13 14 15 16]{4} [1 2 3 4 6 7 8 9 10 11 12 13 14 15 16] 5{2}  [1 2 3 4 6 7 8 9 10 11 12 13 14 15 16]*) )",
    "( ([1 2 3 4 5 7 8 9 10 11 12 13 14 15 16]* 6{1} [1 2 3 4 5 7 8 9 10 11 12 13 14 15 16] [1 2 3 4 5 7 8 9 10 11 12 13 14 15 16]{4} 6{1}  [1 2 3 4 5 7 8 9 10 11 12 13 14 15 16]*) | ([1 2 3 4 5 7 8 9 10 11 12 13 14 15 16]* 6{2}  [1 2 3 4 5 7 8 9 10 11 12 13 14 15 16]*) | ([1 2 3 4 5 7 8 9 10 11 12 13 14 15 16]* 6{1} [1 2 3 4 5 7 8 9 10 11 12 13 14 15 16]{4} [1 2 3 4 5 7 8 9 10 11 12 13 14 15 16] 6{1}  [1 2 3 4 5 7 8 9 10 11 12 13 14 15 16]*) | ([1 2 3 4 5 7 8 9 10 11 12 13 14 15 16]* 6{2}  [1 2 3 4 5 7 8 9 10 11 12 13 14 15 16]*) | ([1 2 3 4 5 7 8 9 10 11 12 13 14 15 16]* 6{1} [1 2 3 4 5 7 8 9 10 11 12 13 14 15 16]{4} [1 2 3 4 5 7 8 9 10 11 12 13 14 15 16] 6{1}  [1 2 3 4 5 7 8 9 10 11 12 13 14 15 16]*) | ([1 2 3 4 5 7 8 9 10 11 12 13 14 15 16]* 6{2}  [1 2 3 4 5 7 8 9 10 11 12 13 14 15 16]*) | ([1 2 3 4 5 7 8 9 10 11 12 13 14 15 16]* 6{1} [1 2 3 4 5 7 8 9 10 11 12 13 14 15 16] [1 2 3 4 5 7 8 9 10 11 12 13 14 15 16]{4} 6{1}  [1 2 3 4 5 7 8 9 10 11 12 13 14 15 16]*) | ([1 2 3 4 5 7 8 9 10 11 12 13 14 15 16]* 6{2}  [1 2 3 4 5 7 8 9 10 11 12 13 14 15 16]*) )",
    "( ([1 2 3 4 5 6 8 9 10 11 12 13 14 15 16]* 7{1}  [1 2 3 4 5 6 8 9 10 11 12 13 14 15 16]*) | ([1 2 3 4 5 6 8 9 10 11 12 13 14 15 16]* 7{1}  [1 2 3 4 5 6 8 9 10 11 12 13 14 15 16]*) | ([1 2 3 4 5 6 8 9 10 11 12 13 14 15 16]* 7{1}  [1 2 3 4 5 6 8 9 10 11 12 13 14 15 16]*) | ([1 2 3 4 5 6 8 9 10 11 12 13 14 15 16]* 7{1}  [1 2 3 4 5 6 8 9 10 11 12 13 14 15 16]*) | ([1 2 3 4 5 6 8 9 10 11 12 13 14 15 16]* 7{1}  [1 2 3 4 5 6 8 9 10 11 12 13 14 15 16]*) | ([1 2 3 4 5 6 8 9 10 11 12 13 14 15 16]* 7{1}  [1 2 3 4 5 6 8 9 10 11 12 13 14 15 16]*) | ([1 2 3 4 5 6 8 9 10 11 12 13 14 15 16]* 7{1}  [1 2 3 4 5 6 8 9 10 11 12 13 14 15 16]*) | ([1 2 3 4 5 6 8 9 10 11 12 13 14 15 16]* 7{1}  [1 2 3 4 5 6 8 9 10 11 12 13 14 15 16]*) )",
    "( ([1 2 3 4 5 6 7 9 10 11 12 13 14 15 16]* 8{1}  [1 2 3 4 5 6 7 9 10 11 12 13 14 15 16]*) | ([1 2 3 4 5 6 7 9 10 11 12 13 14 15 16]* 8{1}  [1 2 3 4 5 6 7 9 10 11 12 13 14 15 16]*) | ([1 2 3 4 5 6 7 9 10 11 12 13 14 15 16]* 8{1}  [1 2 3 4 5 6 7 9 10 11 12 13 14 15 16]*) | ([1 2 3 4 5 6 7 9 10 11 12 13 14 15 16]* 8{1}  [1 2 3 4 5 6 7 9 10 11 12 13 14 15 16]*) | ([1 2 3 4 5 6 7 9 10 11 12 13 14 15 16]* 8{1}  [1 2 3 4 5 6 7 9 10 11 12 13 14 15 16]*) | ([1 2 3 4 5 6 7 9 10 11 12 13 14 15 16]* 8{1}  [1 2 3 4 5 6 7 9 10 11 12 13 14 15 16]*) | ([1 2 3 4 5 6 7 9 10 11 12 13 14 15 16]* 8{1}  [1 2 3 4 5 6 7 9 10 11 12 13 14 15 16]*) | ([1 2 3 4 5 6 7 9 10 11 12 13 14 15 16]* 8{1}  [1 2 3 4 5 6 7 9 10 11 12 13 14 15 16]*) )",
    "( ([1 2 3 4 5 6 7 8 10 11 12 13 14 15 16]* 9{1} [1 2 3 4 5 6 7 8 10 11 12 13 14 15 16]{2} [1 2 3 4 5 6 7 8 10 11 12 13 14 15 16] [1 2 3 4 5 6 7 8 10 11 12 13 14 15 16]{2} 9{1}  [1 2 3 4 5 6 7 8 10 11 12 13 14 15 16]*) | ([1 2 3 4 5 6 7 8 10 11 12 13 14 15 16]* 9{2}  [1 2 3 4 5 6 7 8 10 11 12 13 14 15 16]*) | ([1 2 3 4 5 6 7 8 10 11 12 13 14 15 16]* 9{1} [1 2 3 4 5 6 7 8 10 11 12 13 14 15 16]{2} [1 2 3 4 5 6 7 8 10 11 12 13 14 15 16] [1 2 3 4 5 6 7 8 10 11 12 13 14 15 16]{2} 9{1}  [1 2 3 4 5 6 7 8 10 11 12 13 14 15 16]*) | ([1 2 3 4 5 6 7 8 10 11 12 13 14 15 16]* 9{2}  [1 2 3 4 5 6 7 8 10 11 12 13 14 15 16]*) | ([1 2 3 4 5 6 7 8 10 11 12 13 14 15 16]* 9{1} [1 2 3 4 5 6 7 8 10 11 12 13 14 15 16]{2} [1 2 3 4 5 6 7 8 10 11 12 13 14 15 16] [1 2 3 4 5 6 7 8 10 11 12 13 14 15 16]{2} 9{1}  [1 2 3 4 5 6 7 8 10 11 12 13 14 15 16]*) | ([1 2 3 4 5 6 7 8 10 11 12 13 14 15 16]* 9{2}  [1 2 3 4 5 6 7 8 10 11 12 13 14 15 16]*) | ([1 2 3 4 5 6 7 8 10 11 12 13 14 15 16]* 9{1} [1 2 3 4 5 6 7 8 10 11 12 13 14 15 16]{2} [1 2 3 4 5 6 7 8 10 11 12 13 14 15 16] [1 2 3 4 5 6 7 8 10 11 12 13 14 15 16]{2} 9{1}  [1 2 3 4 5 6 7 8 10 11 12 13 14 15 16]*) | ([1 2 3 4 5 6 7 8 10 11 12 13 14 15 16]* 9{2}  [1 2 3 4 5 6 7 8 10 11 12 13 14 15 16]*) )",
    "( ([1 2 3 4 5 6 7 8 9 11 12 13 14 15 16]* 10{1}  [1 2 3 4 5 6 7 8 9 11 12 13 14 15 16]*) | ([1 2 3 4 5 6 7 8 9 11 12 13 14 15 16]* 10{1}  [1 2 3 4 5 6 7 8 9 11 12 13 14 15 16]*) | ([1 2 3 4 5 6 7 8 9 11 12 13 14 15 16]* 10{1}  [1 2 3 4 5 6 7 8 9 11 12 13 14 15 16]*) | ([1 2 3 4 5 6 7 8 9 11 12 13 14 15 16]* 10{1}  [1 2 3 4 5 6 7 8 9 11 12 13 14 15 16]*) | ([1 2 3 4 5 6 7 8 9 11 12 13 14 15 16]* 10{1}  [1 2 3 4 5 6 7 8 9 11 12 13 14 15 16]*) | ([1 2 3 4 5 6 7 8 9 11 12 13 14 15 16]* 10{1}  [1 2 3 4 5 6 7 8 9 11 12 13 14 15 16]*) | ([1 2 3 4 5 6 7 8 9 11 12 13 14 15 16]* 10{1}  [1 2 3 4 5 6 7 8 9 11 12 13 14 15 16]*) | ([1 2 3 4 5 6 7 8 9 11 12 13 14 15 16]* 10{1}  [1 2 3 4 5 6 7 8 9 11 12 13 14 15 16]*) )",
    "( ([1 2 3 4 5 6 7 8 9 10 12 13 14 15 16]* 11{1}  [1 2 3 4 5 6 7 8 9 10 12 13 14 15 16]*) | ([1 2 3 4 5 6 7 8 9 10 12 13 14 15 16]* 11{1}  [1 2 3 4 5 6 7 8 9 10 12 13 14 15 16]*) | ([1 2 3 4 5 6 7 8 9 10 12 13 14 15 16]* 11{1}  [1 2 3 4 5 6 7 8 9 10 12 13 14 15 16]*) | ([1 2 3 4 5 6 7 8 9 10 12 13 14 15 16]* 11{1}  [1 2 3 4 5 6 7 8 9 10 12 13 14 15 16]*) | ([1 2 3 4 5 6 7 8 9 10 12 13 14 15 16]* 11{1}  [1 2 3 4 5 6 7 8 9 10 12 13 14 15 16]*) | ([1 2 3 4 5 6 7 8 9 10 12 13 14 15 16]* 11{1}  [1 2 3 4 5 6 7 8 9 10 12 13 14 15 16]*) | ([1 2 3 4 5 6 7 8 9 10 12 13 14 15 16]* 11{1}  [1 2 3 4 5 6 7 8 9 10 12 13 14 15 16]*) | ([1 2 3 4 5 6 7 8 9 10 12 13 14 15 16]* 11{1}  [1 2 3 4 5 6 7 8 9 10 12 13 14 15 16]*) )",
    "( ([1 2 3 4 5 6 7 8 9 10 11 13 14 15 16]* 12{1}  [1 2 3 4 5 6 7 8 9 10 11 13 14 15 16]*) | ([1 2 3 4 5 6 7 8 9 10 11 13 14 15 16]* 12{1}  [1 2 3 4 5 6 7 8 9 10 11 13 14 15 16]*) | ([1 2 3 4 5 6 7 8 9 10 11 13 14 15 16]* 12{1}  [1 2 3 4 5 6 7 8 9 10 11 13 14 15 16]*) | ([1 2 3 4 5 6 7 8 9 10 11 13 14 15 16]* 12{1}  [1 2 3 4 5 6 7 8 9 10 11 13 14 15 16]*) | ([1 2 3 4 5 6 7 8 9 10 11 13 14 15 16]* 12{1}  [1 2 3 4 5 6 7 8 9 10 11 13 14 15 16]*) | ([1 2 3 4 5 6 7 8 9 10 11 13 14 15 16]* 12{1}  [1 2 3 4 5 6 7 8 9 10 11 13 14 15 16]*) | ([1 2 3 4 5 6 7 8 9 10 11 13 14 15 16]* 12{1}  [1 2 3 4 5 6 7 8 9 10 11 13 14 15 16]*) | ([1 2 3 4 5 6 7 8 9 10 11 13 14 15 16]* 12{1}  [1 2 3 4 5 6 7 8 9 10 11 13 14 15 16]*) )",
    "( ([1 2 3 4 5 6 7 8 9 10 11 12 14 15 16]* 13{2}  [1 2 3 4 5 6 7 8 9 10 11 12 14 15 16]*) | ([1 2 3 4 5 6 7 8 9 10 11 12 14 15 16]* 13{1} [1 2 3 4 5 6 7 8 9 10 11 12 14 15 16]{3} [1 2 3 4 5 6 7 8 9 10 11 12 14 15 16] [1 2 3 4 5 6 7 8 9 10 11 12 14 15 16]{1} 13{1}  [1 2 3 4 5 6 7 8 9 10 11 12 14 15 16]*) | ([1 2 3 4 5 6 7 8 9 10 11 12 14 15 16]* 13{2}  [1 2 3 4 5 6 7 8 9 10 11 12 14 15 16]*) | ([1 2 3 4 5 6 7 8 9 10 11 12 14 15 16]* 13{1} [1 2 3 4 5 6 7 8 9 10 11 12 14 15 16]{1} [1 2 3 4 5 6 7 8 9 10 11 12 14 15 16] [1 2 3 4 5 6 7 8 9 10 11 12 14 15 16]{3} 13{1}  [1 2 3 4 5 6 7 8 9 10 11 12 14 15 16]*) | ([1 2 3 4 5 6 7 8 9 10 11 12 14 15 16]* 13{2}  [1 2 3 4 5 6 7 8 9 10 11 12 14 15 16]*) | ([1 2 3 4 5 6 7 8 9 10 11 12 14 15 16]* 13{1} [1 2 3 4 5 6 7 8 9 10 11 12 14 15 16]{1} [1 2 3 4 5 6 7 8 9 10 11 12 14 15 16] [1 2 3 4 5 6 7 8 9 10 11 12 14 15 16]{3} 13{1}  [1 2 3 4 5 6 7 8 9 10 11 12 14 15 16]*) | ([1 2 3 4 5 6 7 8 9 10 11 12 14 15 16]* 13{2}  [1 2 3 4 5 6 7 8 9 10 11 12 14 15 16]*) | ([1 2 3 4 5 6 7 8 9 10 11 12 14 15 16]* 13{1} [1 2 3 4 5 6 7 8 9 10 11 12 14 15 16]{3} [1 2 3 4 5 6 7 8 9 10 11 12 14 15 16] [1 2 3 4 5 6 7 8 9 10 11 12 14 15 16]{1} 13{1}  [1 2 3 4 5 6 7 8 9 10 11 12 14 15 16]*) )",
    "( ([1 2 3 4 5 6 7 8 9 10 11 12 13 15 16]* 14{2} [1 2 3 4 5 6 7 8 9 10 11 12 13 15 16] [1 2 3 4 5 6 7 8 9 10 11 12 13 15 16]{3} 14{2}  [1 2 3 4 5 6 7 8 9 10 11 12 13 15 16]*) | ([1 2 3 4 5 6 7 8 9 10 11 12 13 15 16]* 14{2} [1 2 3 4 5 6 7 8 9 10 11 12 13 15 16] [1 2 3 4 5 6 7 8 9 10 11 12 13 15 16]{3} 14{2}  [1 2 3 4 5 6 7 8 9 10 11 12 13 15 16]*) | ([1 2 3 4 5 6 7 8 9 10 11 12 13 15 16]* 14{2} [1 2 3 4 5 6 7 8 9 10 11 12 13 15 16]{3} [1 2 3 4 5 6 7 8 9 10 11 12 13 15 16] 14{2}  [1 2 3 4 5 6 7 8 9 10 11 12 13 15 16]*) | ([1 2 3 4 5 6 7 8 9 10 11 12 13 15 16]* 14{2} [1 2 3 4 5 6 7 8 9 10 11 12 13 15 16]{3} [1 2 3 4 5 6 7 8 9 10 11 12 13 15 16] 14{2}  [1 2 3 4 5 6 7 8 9 10 11 12 13 15 16]*) | ([1 2 3 4 5 6 7 8 9 10 11 12 13 15 16]* 14{2} [1 2 3 4 5 6 7 8 9 10 11 12 13 15 16]{3} [1 2 3 4 5 6 7 8 9 10 11 12 13 15 16] 14{2}  [1 2 3 4 5 6 7 8 9 10 11 12 13 15 16]*) | ([1 2 3 4 5 6 7 8 9 10 11 12 13 15 16]* 14{2} [1 2 3 4 5 6 7 8 9 10 11 12 13 15 16]{3} [1 2 3 4 5 6 7 8 9 10 11 12 13 15 16] 14{2}  [1 2 3 4 5 6 7 8 9 10 11 12 13 15 16]*) | ([1 2 3 4 5 6 7 8 9 10 11 12 13 15 16]* 14{2} [1 2 3 4 5 6 7 8 9 10 11 12 13 15 16] [1 2 3 4 5 6 7 8 9 10 11 12 13 15 16]{3} 14{2}  [1 2 3 4 5 6 7 8 9 10 11 12 13 15 16]*) | ([1 2 3 4 5 6 7 8 9 10 11 12 13 15 16]* 14{2} [1 2 3 4 5 6 7 8 9 10 11 12 13 15 16] [1 2 3 4 5 6 7 8 9 10 11 12 13 15 16]{3} 14{2}  [1 2 3 4 5 6 7 8 9 10 11 12 13 15 16]*) )",
    "( ([1 2 3 4 5 6 7 8 9 10 11 12 13 14 16]* 15{1}  [1 2 3 4 5 6 7 8 9 10 11 12 13 14 16]*) | ([1 2 3 4 5 6 7 8 9 10 11 12 13 14 16]* 15{1}  [1 2 3 4 5 6 7 8 9 10 11 12 13 14 16]*) | ([1 2 3 4 5 6 7 8 9 10 11 12 13 14 16]* 15{1}  [1 2 3 4 5 6 7 8 9 10 11 12 13 14 16]*) | ([1 2 3 4 5 6 7 8 9 10 11 12 13 14 16]* 15{1}  [1 2 3 4 5 6 7 8 9 10 11 12 13 14 16]*) | ([1 2 3 4 5 6 7 8 9 10 11 12 13 14 16]* 15{1}  [1 2 3 4 5 6 7 8 9 10 11 12 13 14 16]*) | ([1 2 3 4 5 6 7 8 9 10 11 12 13 14 16]* 15{1}  [1 2 3 4 5 6 7 8 9 10 11 12 13 14 16]*) | ([1 2 3 4 5 6 7 8 9 10 11 12 13 14 16]* 15{1}  [1 2 3 4 5 6 7 8 9 10 11 12 13 14 16]*) | ([1 2 3 4 5 6 7 8 9 10 11 12 13 14 16]* 15{1}  [1 2 3 4 5 6 7 8 9 10 11 12 13 14 16]*) )",
];
